(declare-const v0 Real)
(declare-const a Real)
(assert (= v0 (* 5 a)))
(declare-const v1 Real)
(declare-const b Real)
(assert (= v1 (* 3 b)))
(declare-const c Real)
(assert (= (+ (+ v0 v1) c) 10))
(assert (not (= (+ (+ (+ v0 5) (- v1 3)) (- c 2)) 10)))
(check-sat)
